WARNING: for repeatability, setting FPU to use double precision
============================[ Problem Statistics ]=============================
|                                                                             |
|  Number of variables:          4351                                         |
|  Number of clauses:           51400                                         |
|  Parse time:                   0.01 s                                       |
|  Eliminated clauses:           0.01 Mb                                      |
|  Simplification time:          0.01 s                                       |
|                                                                             |
============================[ Search Statistics ]==============================
| Conflicts |          ORIGINAL         |          LEARNT          | Progress |
|           |    Vars  Clauses Literals |    Limit  Clauses Lit/Cl |          |
===============================================================================
|       100 |     605     3305     9803 |     1211      100     18 | 63.342 % |
|       250 |     605     3305     9803 |     1333      250     19 | 63.342 % |
===============================================================================
restarts              : 4
conflicts             : 445            (14378 /sec)
decisions             : 1473           (0.00 % random) (47594 /sec)
propagations          : 23214          (750073 /sec)
conflict literals     : 13931          (6.97 % deleted)
Memory used           : 24.00 MB
CPU time              : 0.030949 s

SATISFIABLE
